10J3M/DAT/10J3MUTR-10.dat
10 3
49.0687 4.6918
20.9589 16.4438
23.8711 48.9754
46.7987 47.0971
10.8203 12.4362
30.2736 15.119
7.7259 6.1639
13.7274 11.3848
1.8332 31.1862
15.8475 33.1755
56.6684