10J3M/SOL/10J3MUTR-10.sol
solution status: optimal solution found
objective value:                     98.7455099784234
x#1#3                                               1 	(obj:0)
x#2#2                               0.187060104536023 	(obj:0)
x#2#3                               0.124714514499402 	(obj:0)
x#3#1                               0.958497507572042 	(obj:0)
x#3#2                              0.0415024924279579 	(obj:0)
x#4#1                                               1 	(obj:0)
x#5#3                                               1 	(obj:0)
x#6#2                               0.897846459410187 	(obj:0)
x#6#3                               0.102153540589813 	(obj:0)
x#7#1                               0.551182849457748 	(obj:0)
x#7#2                               0.448817150542252 	(obj:0)
x#9#2                                               1 	(obj:0)
x#10#3                                              1 	(obj:0)
z                                    98.7455099784234 	(obj:1)
